data/mip_solutions/chen_grossmann_miller/reduced_transportation/unbalanced5_cplex.sol
Elapsed time: 0.0802690982819
Nodes explored: 0
Upper bound: 16.0
Lower bound: 16.0
y[0,0]=1
y[0,1]=1
y[0,3]=1
y[0,5]=1
y[1,4]=1
y[1,5]=1
y[2,0]=1
y[2,2]=1
y[3,0]=1
y[3,5]=1
y[4,0]=1
y[4,2]=1
y[4,4]=1
y[5,0]=1
y[5,4]=1
y[6,0]=1
q[0,2,0,3]=95.0
q[0,2,3,2]=25.0
q[0,3,0,3]=105.0
q[0,3,3,3]=75.0
q[0,4,1,6]=35.0
q[0,4,3,4]=25.0
q[0,5,0,5]=104.0
q[0,5,1,6]=36.0
q[0,5,3,5]=100.0
q[0,6,0,6]=236.0
q[0,6,1,6]=79.0
q[0,6,3,6]=225.0
q[0,7,0,7]=120.0
q[0,7,1,7]=120.0
q[0,8,1,8]=30.0
q[0,8,1,9]=30.0
q[0,9,1,9]=120.0
q[0,9,5,11]=120.0
q[1,5,4,5]=80.0
q[1,6,4,6]=180.0
q[1,7,4,7]=80.0
q[1,8,4,8]=20.0
q[1,9,5,11]=80.0
q[2,3,0,3]=15.0
q[2,4,2,6]=5.0
q[2,5,2,6]=20.0
q[2,6,0,6]=34.0
q[2,6,2,6]=11.0
q[2,7,2,7]=16.0
q[2,7,2,8]=4.0
q[2,8,2,9]=5.0
q[2,9,2,10]=5.0
q[3,6,0,6]=720.0
q[3,7,0,7]=320.0
q[3,8,5,11]=80.0
q[3,9,5,11]=400.0
q[3,10,5,11]=80.0
q[4,1,4,1]=40.0
q[4,1,4,3]=20.0
q[4,2,0,2]=20.0
q[4,2,4,2]=40.0
q[4,3,0,3]=50.0
q[4,3,4,3]=40.0
q[4,4,0,4]=10.0
q[4,4,4,4]=20.0
q[4,5,0,5]=116.0
q[4,5,2,5]=4.0
q[4,6,0,6]=270.0
q[4,7,0,7]=120.0
q[4,8,2,9]=15.0
q[4,8,2,10]=15.0
q[5,0,0,1]=140.0
q[5,0,0,2]=260.0
q[5,0,0,3]=155.0
q[5,0,4,0]=80.0
q[6,4,0,4]=130.0
q[6,4,0,5]=340.0
